ITEM = 1..40;
capacity1 = 348;
capacity2 = 348;
capacity3 = 348;
profits = [44, 23, 56, 21, 38, 20, 26, 39, 39, 22, 46, 26, 67, 27, 79, 21, 34, 25, 20, 34, 31, 23, 36, 34, 21, 34, 35, 32, 30, 71, 45, 23, 31, 25, 36, 34, 50, 46, 90, 43];
weights = [53, 20, 100, 52, 44, 71, 73, 97, 41, 23, 48, 16, 83, 21, 89, 14, 61, 52, 19, 92, 29, 26, 97, 39, 71, 39, 64, 35, 24, 73, 45, 14, 30, 18, 47, 70, 97, 38, 93, 73];
